Exercises_for_practice/Basico/Modelo_1.lp
\ Model Model 1
\ LP format - for model browsing. Use MPS format to capture full model detail.
\ Signature: 0xfd3c0d40e3ab296e
Maximize
  0 x + 0 y + 3 x + 5 y
Subject To
 R0: 2 x + y <= 100
 R1: x + 2 y <= 110
 R2: x >= 0
 R3: y >= 0
 R4: 2 x + y <= 100
 R5: x + 2 y <= 110
Bounds
End
