Exercises_for_practice/Modelo_1.mps
* Signature: 0xfd3c0d40e3ab296e
NAME Model 1
OBJSENSE MAX
ROWS
 N  OBJ
 L  R0      
 L  R1      
 G  R2      
 G  R3      
 L  R4      
 L  R5      
COLUMNS
    C0(0)     OBJ       0
    C1(0)     OBJ       0
    C2(5)     OBJ       3
    C2(5)     R0        2
    C2(5)     R1        1
    C2(5)     R2        1
    C2(5)     R4        2
    C2(5)     R5        1
    C3(5)     OBJ       5
    C3(5)     R0        1
    C3(5)     R1        2
    C3(5)     R3        1
    C3(5)     R4        1
    C3(5)     R5        2
RHS
    RHS1      R0        100
    RHS1      R1        110
    RHS1      R4        100
    RHS1      R5        110
BOUNDS
ENDATA
